; benchmark generated from python API
(set-info :status unknown)
(declare-datatypes ((IntState 0)) (((Mk1 (val1 Int)) (Mk2 (val2 Int)))))
 (declare-fun c_main_~n~22 () Int)
(declare-fun c_main_~f1~22 () Int)
(declare-fun |c_main_#t~ret12| () Int)
(declare-fun |c_main_#t~short13| () Bool)
(assert
 (let (($x150 (exists ((v_nnf_16_st IntState) (val!47 Int) )(exists ((v_nnf_17_st IntState) (val!48 Int) )(let (($x122 (<= c_main_~n~22 2)))
 (let (($x162 (<= (+ (* 2 (val2 v_nnf_16_st)) (* 2 (val2 v_nnf_17_st)) 1) |c_main_#t~ret12|)))
 (let (($x85 (and $x162 (<= c_main_~f1~22 (val2 v_nnf_16_st)) $x122 (<= (val2 v_nnf_16_st) (val2 v_nnf_17_st)))))
 (let (($x52 (not (= v_nnf_17_st (Mk1 val!48)))))
 (let (($x173 (not (= v_nnf_16_st (Mk1 val!47)))))
 (and $x173 $x52 $x85)))))))
 )
 ))
 (let (($x50 (exists ((v_nnf_16 Int) )(exists ((v_nnf_17 Int) )(let (($x122 (<= c_main_~n~22 2)))
 (and (<= (+ (* 2 v_nnf_16) (* 2 v_nnf_17) 1) |c_main_#t~ret12|) (<= c_main_~f1~22 v_nnf_16) $x122 (<= v_nnf_16 v_nnf_17))))
 )
 ))
 (let (($x156 (= |c_main_#t~short13| (= |c_main_#t~ret12| c_main_~n~22))))
 (and (and $x156 $x50) (not $x150))))))
(check-sat)
